NAME : instances/diverse-tsp/instance-17.tsp
COMMENT : No Comment
TYPE : TSP
DIMENSION: 48
EDGE_WEIGHT_TYPE : EUC_2D
NODE_COORD_SECTION
1 1070 1256 
2 459 1578 
3 391 65 
4 1702 1219 
5 1268 999 
6 1560 287 
7 1867 173 
8 1332 442 
9 695 115 
10 83 1929 
11 1605 806 
12 1397 220 
13 569 1446 
14 968 671 
15 401 1855 
16 801 1842 
17 984 1495 
18 1581 1151 
19 1742 983 
20 48 1650 
21 454 16 
22 1642 599 
23 732 1387 
24 1090 1259 
25 469 360 
26 836 173 
27 93 1580 
28 208 320 
29 291 528 
30 1209 373 
31 584 1083 
32 1432 192 
33 1539 78 
34 357 1831 
35 703 624 
36 281 172 
37 1234 890 
38 665 858 
39 1175 9 
40 1481 112 
41 163 370 
42 926 490 
43 642 845 
44 1039 1192 
45 1868 765 
46 1896 432 
47 1176 74 
48 1637 1544 
EOF
